50
    77    75    59    19    90    85    26    51    38     8    65    31    18    17    33    54    71    53    77    28    77    21    34    81    54    93    33    54    65     5    93     4    11    60    22     4    35    25    22    42    19    35    82    22    87    89    85    64     3    51
     8     3     5     5     4     2     9     6     7     3     8     8     3     1     5     3     3     2     4     8     9    10     3     2     4    10     9     3     6     6     7    10     3     2     6     8     5     1     6     6     6     7     1    10     1     2     4     7     8    10
   477   840   497   650  1139   917   963   603  1352  1331  1313   782   831   913  1313  1403   633   762  1327   838  1313   585   700  1088   606  1128  1308   609   960   510  1256   724   657  1347  1236  1262  1341   527  1042  1346  1019  1012  1237   655   654   684   608  1148   906  1328
